(declare-fun v0 () Bool)
(declare-fun v1 () Bool)
(push)
(assert false)
(check-sat)
(pop)
(assert (not (distinct (= (or (not v0) v1) v1) (not v1))))
(assert (or (not v0) v1))
(push)
(assert false)
(push)
(check-sat)
(pop)
(check-sat)
(pop)
(check-sat)
(push)
(check-sat)
(pop)
(check-sat)
